NAME : ClusterId_1 
COMMENT : (Gillet and Johnson) 
TYPE : CVRP 
DIMENSION : 21 
EDGE_WEIGHT_TYPE : EUC_2D 
CAPACITY : 500 
NODE_COORD_SECTION 
1 -33 33 
117 7 -4 
9 -12 10 
191 -16 16 
70 -18 34 
214 -20 -5 
178 -16 36 
250 -14 44 
63 -12 42 
4 0 14 
238 -13 38 
124 -4 17 
119 -3 17 
123 -1 49 
113 -24 4 
164 -28 39 
225 -26 43 
158 -17 49 
44 -7 52 
224 -5 54 
83 -20 51 
DEMAND_SECTION 
1 1000
117 5
9 36
191 75
70 39
214 28
178 36
250 50
63 37
4 93
238 28
124 23
119 18
123 4
113 71
164 97
225 99
158 79
44 43
224 39
83 99
DEPOT_SECTION 
1
 -1
EOF